(set-info :status sat)
(declare-const symbol_203 (_ BitVec 32))
(declare-const symbol_90 (_ BitVec 32))
(declare-const symbol_71 (_ BitVec 32))
(declare-const symbol_55 (_ BitVec 32))
(declare-const symbol_32 (_ BitVec 32))
(declare-const symbol_155 (_ BitVec 32))
(declare-const symbol_163 (_ BitVec 32))
(declare-const symbol_25 (_ BitVec 32))
(declare-const symbol_78 (_ BitVec 32))
(declare-const symbol_197 (_ BitVec 32))
(declare-const symbol_175 (_ BitVec 32))
(declare-const symbol_27 (_ BitVec 32))
(declare-const symbol_189 (_ BitVec 32))
(declare-const symbol_73 (_ BitVec 32))
(declare-const symbol_42 (_ BitVec 32))
(declare-const symbol_118 (_ BitVec 32))
(declare-const symbol_153 (_ BitVec 32))
(declare-const symbol_149 (_ BitVec 32))
(declare-const symbol_109 (_ BitVec 32))
(declare-const symbol_17 (_ BitVec 32))
(declare-const symbol_193 (_ BitVec 32))
(declare-const symbol_115 (_ BitVec 32))
(declare-const symbol_209 (_ BitVec 32))
(declare-const symbol_54 (_ BitVec 32))
(declare-const symbol_45 (_ BitVec 32))
(declare-const symbol_132 (_ BitVec 32))
(declare-const symbol_113 (_ BitVec 32))
(declare-const symbol_106 (_ BitVec 32))
(declare-const symbol_49 (_ BitVec 32))
(declare-const symbol_182 (_ BitVec 32))
(declare-const symbol_167 (_ BitVec 32))
(declare-const symbol_130 (_ BitVec 32))
(declare-const symbol_137 (_ BitVec 32))
(declare-const symbol_171 (_ BitVec 32))
(declare-const symbol_157 (_ BitVec 32))
(declare-const symbol_141 (_ BitVec 32))
(declare-const symbol_102 (_ BitVec 32))
(declare-const symbol_143 (_ BitVec 32))
(declare-const symbol_128 (_ BitVec 32))
(declare-const symbol_4 (_ BitVec 32))
(declare-const symbol_205 (_ BitVec 32))
(declare-const symbol_84 (_ BitVec 32))
(declare-const symbol_75 (_ BitVec 32))
(declare-const symbol_135 (_ BitVec 32))
(declare-const symbol_23 (_ BitVec 32))
(declare-const symbol_15 (_ BitVec 32))
(declare-const symbol_0 (_ BitVec 32))
(declare-const symbol_139 (_ BitVec 32))
(declare-const symbol_104 (_ BitVec 32))
(declare-const symbol_184 (_ BitVec 32))
(declare-const symbol_82 (_ BitVec 32))
(declare-const symbol_9 (_ BitVec 32))
(declare-const symbol_92 (_ BitVec 32))
(declare-const symbol_161 (_ BitVec 32))
(declare-const symbol_188 (_ BitVec 32))
(declare-const symbol_179 (_ BitVec 32))
(declare-const symbol_96 (_ BitVec 32))
(declare-const symbol_36 (_ BitVec 32))
(declare-const symbol_64 (_ BitVec 32))
(declare-const symbol_61 (_ BitVec 32))
(declare-const symbol_34 (_ BitVec 32))
(declare-const symbol_11 (_ BitVec 32))
(declare-const symbol_145 (_ BitVec 32))
(declare-const symbol_126 (_ BitVec 32))
(declare-const symbol_46 (_ BitVec 32))
(declare-const symbol_38 (_ BitVec 32))
(declare-const symbol_100 (_ BitVec 32))
(declare-const symbol_57 (_ BitVec 32))
(declare-const symbol_207 (_ BitVec 32))
(declare-const symbol_94 (_ BitVec 32))
(declare-const symbol_67 (_ BitVec 32))
(declare-const symbol_191 (_ BitVec 32))
(declare-const symbol_173 (_ BitVec 32))
(declare-const symbol_177 (_ BitVec 32))
(declare-const symbol_122 (_ BitVec 32))
(declare-const symbol_80 (_ BitVec 32))
(declare-const symbol_18 (_ BitVec 32))
(declare-const symbol_147 (_ BitVec 32))
(declare-const symbol_66 (_ BitVec 32))
(declare-const symbol_40 (_ BitVec 32))
(declare-const symbol_30 (_ BitVec 32))
(declare-const symbol_211 (_ BitVec 32))
(declare-const symbol_180 (_ BitVec 32))
(declare-const symbol_169 (_ BitVec 32))
(declare-const symbol_111 (_ BitVec 32))
(declare-const symbol_120 (_ BitVec 32))
(declare-const symbol_88 (_ BitVec 32))
(declare-const symbol_2 (_ BitVec 32))
(declare-const symbol_86 (_ BitVec 32))
(declare-const symbol_51 (_ BitVec 32))
(declare-const symbol_199 (_ BitVec 32))
(declare-const symbol_151 (_ BitVec 32))
(declare-const symbol_98 (_ BitVec 32))
(declare-const symbol_124 (_ BitVec 32))
(declare-const symbol_20 (_ BitVec 32))
(declare-const symbol_217 (_ BitVec 32))
(declare-const symbol_186 (_ BitVec 32))
(declare-const symbol_13 (_ BitVec 32))
(declare-const symbol_7 (_ BitVec 32))
(declare-const symbol_59 (_ BitVec 32))
(declare-const symbol_165 (_ BitVec 32))
(declare-const symbol_159 (_ BitVec 32))
(declare-const symbol_69 (_ BitVec 32))
(declare-const symbol_195 (_ BitVec 32))
(declare-const symbol_215 (_ BitVec 32))
(declare-const symbol_76 (_ BitVec 32))
(declare-const symbol_5 (_ BitVec 32))
(declare-const symbol_213 (_ BitVec 32))
(declare-const symbol_201 (_ BitVec 32))
(assert (not (= symbol_217 (_ bv8 32))))
(assert (not (not (= symbol_217 (_ bv15 32)))))
(assert (not (not (= symbol_215 (_ bv15 32)))))
(assert (not (not (= symbol_213 (_ bv15 32)))))
(assert (not (not (= symbol_211 (_ bv15 32)))))
(assert (not (not (= symbol_209 (_ bv15 32)))))
(assert (not (not (= symbol_207 (_ bv15 32)))))
(assert (not (not (= symbol_205 (_ bv15 32)))))
(assert (not (not (= symbol_203 (_ bv15 32)))))
(assert (not (not (= symbol_201 (_ bv15 32)))))
(assert (not (not (= symbol_199 (_ bv15 32)))))
(assert (not (not (= symbol_197 (_ bv15 32)))))
(assert (not (not (= symbol_195 (_ bv15 32)))))
(assert (not (not (= symbol_193 (_ bv15 32)))))
(assert (not (not (= symbol_191 (_ bv15 32)))))
(assert (not (not (= symbol_189 (_ bv15 32)))))
(assert (not (not (= symbol_188 (_ bv15 32)))))
(assert (not (not (= symbol_186 (_ bv15 32)))))
(assert (not (not (= symbol_184 (_ bv15 32)))))
(assert (not (not (= symbol_182 (_ bv15 32)))))
(assert (not (not (= symbol_180 (_ bv15 32)))))
(assert (not (not (= symbol_179 (_ bv15 32)))))
(assert (not (not (= symbol_177 (_ bv15 32)))))
(assert (not (not (= symbol_175 (_ bv15 32)))))
(assert (not (not (= symbol_173 (_ bv15 32)))))
(assert (not (not (= symbol_171 (_ bv15 32)))))
(assert (not (not (= symbol_169 (_ bv15 32)))))
(assert (not (not (= symbol_167 (_ bv15 32)))))
(assert (not (not (= symbol_165 (_ bv15 32)))))
(assert (not (not (= symbol_163 (_ bv15 32)))))
(assert (not (not (= symbol_161 (_ bv15 32)))))
(assert (not (not (= symbol_159 (_ bv15 32)))))
(assert (not (not (= symbol_157 (_ bv15 32)))))
(assert (not (not (= symbol_155 (_ bv15 32)))))
(assert (not (not (= symbol_153 (_ bv15 32)))))
(assert (not (not (= symbol_151 (_ bv15 32)))))
(assert (not (not (= symbol_149 (_ bv15 32)))))
(assert (not (not (= symbol_147 (_ bv15 32)))))
(assert (not (not (= symbol_145 (_ bv15 32)))))
(assert (not (not (= symbol_143 (_ bv15 32)))))
(assert (not (not (= symbol_141 (_ bv15 32)))))
(assert (not (not (= symbol_139 (_ bv15 32)))))
(assert (not (not (= symbol_137 (_ bv15 32)))))
(assert (not (not (= symbol_135 (_ bv15 32)))))
(assert (not (not (= symbol_132 (_ bv15 32)))))
(assert (not (not (= symbol_130 (_ bv15 32)))))
(assert (not (not (= symbol_128 (_ bv15 32)))))
(assert (not (not (= symbol_126 (_ bv15 32)))))
(assert (not (not (= symbol_124 (_ bv15 32)))))
(assert (not (not (= symbol_122 (_ bv15 32)))))
(assert (not (not (= symbol_120 (_ bv15 32)))))
(assert (not (not (= symbol_118 (_ bv15 32)))))
(assert (not (not (= symbol_115 (_ bv15 32)))))
(assert (not (not (= symbol_113 (_ bv15 32)))))
(assert (not (not (= symbol_111 (_ bv15 32)))))
(assert (not (not (= symbol_109 (_ bv15 32)))))
(assert (not (not (= symbol_106 (_ bv15 32)))))
(assert (not (not (= symbol_104 (_ bv15 32)))))
(assert (not (not (= symbol_102 (_ bv15 32)))))
(assert (not (not (= symbol_100 (_ bv15 32)))))
(assert (not (not (= symbol_98 (_ bv15 32)))))
(assert (not (not (= symbol_96 (_ bv15 32)))))
(assert (not (not (= symbol_94 (_ bv15 32)))))
(assert (not (not (= symbol_92 (_ bv15 32)))))
(assert (not (not (= symbol_90 (_ bv15 32)))))
(assert (not (not (= symbol_88 (_ bv15 32)))))
(assert (not (not (= symbol_86 (_ bv15 32)))))
(assert (not (not (= symbol_84 (_ bv15 32)))))
(assert (not (not (= symbol_82 (_ bv15 32)))))
(assert (not (not (= symbol_80 (_ bv15 32)))))
(assert (not (not (= symbol_78 (_ bv15 32)))))
(assert (not (not (= symbol_76 (_ bv15 32)))))
(assert (not (not (= symbol_75 (_ bv15 32)))))
(assert (not (not (= symbol_73 (_ bv15 32)))))
(assert (not (not (= symbol_71 (_ bv15 32)))))
(assert (not (not (= symbol_69 (_ bv15 32)))))
(assert (not (not (= symbol_67 (_ bv15 32)))))
(assert (not (not (= symbol_66 (_ bv15 32)))))
(assert (not (not (= symbol_64 (_ bv15 32)))))
(assert (not (not (= symbol_61 (_ bv15 32)))))
(assert (not (not (= symbol_59 (_ bv15 32)))))
(assert (not (not (= symbol_57 (_ bv15 32)))))
(assert (not (not (= symbol_55 (_ bv15 32)))))
(assert (not (not (= symbol_54 (_ bv15 32)))))
(assert (not (not (= symbol_51 (_ bv15 32)))))
(assert (not (not (= symbol_49 (_ bv15 32)))))
(assert (not (not (= symbol_46 (_ bv15 32)))))
(assert (not (not (= symbol_45 (_ bv15 32)))))
(assert (not (not (= symbol_42 (_ bv15 32)))))
(assert (not (not (= symbol_40 (_ bv15 32)))))
(assert (not (not (= symbol_38 (_ bv15 32)))))
(assert (not (not (= symbol_36 (_ bv15 32)))))
(assert (not (not (= symbol_34 (_ bv15 32)))))
(assert (not (not (= symbol_32 (_ bv15 32)))))
(assert (not (not (= symbol_30 (_ bv15 32)))))
(assert (not (not (= symbol_27 (_ bv15 32)))))
(assert (not (not (= symbol_25 (_ bv15 32)))))
(assert (not (not (= symbol_23 (_ bv15 32)))))
(assert (not (not (= symbol_20 (_ bv15 32)))))
(assert (not (not (= symbol_18 (_ bv15 32)))))
(assert (not (not (= symbol_17 (_ bv15 32)))))
(assert (not (not (= symbol_15 (_ bv15 32)))))
(assert (not (not (= symbol_13 (_ bv15 32)))))
(assert (not (not (= symbol_11 (_ bv15 32)))))
(assert (not (not (= symbol_9 (_ bv15 32)))))
(assert (not (not (= symbol_7 (_ bv15 32)))))
(assert (not (not (= symbol_5 (_ bv15 32)))))
(assert (not (not (= symbol_4 (_ bv15 32)))))
(assert (not (not (= symbol_2 (_ bv15 32)))))
(assert (not (not (= symbol_0 (_ bv10 32)))))
(assert (not (= symbol_0 (_ bv15 32))))
(check-sat)